c Random generated cnf formula, satisfiable: true
p cnf 10 50
9 -2 -1 0
9 4 5 0
-9 -10 1 0
7 3 -5 0
7 5 2 0
-3 -1 -10 0
-2 -4 7 0
4 9 -3 0
7 9 8 0
-1 -8 -3 0
6 8 7 0
6 -9 7 0
5 3 -1 0
-2 -4 10 0
-9 2 -5 0
5 -8 2 0
-8 -2 5 0
-6 7 -1 0
-4 -1 5 0
-8 5 2 0
-10 -1 -7 0
7 3 2 0
4 5 -8 0
9 7 8 0
-10 -2 -5 0
-8 -1 6 0
1 8 2 0
-5 8 -6 0
-6 1 -10 0
-9 -3 8 0
9 5 -1 0
-2 -10 -1 0
10 -7 -5 0
-10 -7 -8 0
6 8 3 0
6 4 -2 0
-9 1 3 0
6 7 4 0
-10 -4 1 0
7 -2 9 0
-10 6 8 0
8 -4 9 0
4 2 6 0
4 6 -8 0
1 5 -7 0
-4 -6 -8 0
2 -9 10 0
-5 -4 10 0
-9 8 10 0
-1 9 -10 0
